10
1 0 90
2 0 16
2 1 2
3 0 73
3 1 87
3 2 71
4 0 91
4 1 85
4 2 71
4 3 22
5 0 67
5 1 51
5 2 84
5 3 99
5 4 23
6 0 9
6 1 42
6 2 97
6 3 30
6 4 9
6 5 21
7 0 31
7 1 54
7 2 16
7 3 5
7 4 2
7 5 99
7 6 76
8 0 75
8 1 41
8 2 61
8 3 12
8 4 81
8 5 41
8 6 46
8 7 8
9 0 33
9 1 10
9 2 1
9 3 60
9 4 89
9 5 92
9 6 68
9 7 43
9 8 41
